c "149503.clq"
p edge 100 1344
e 1 17
e 1 18
e 1 19
e 1 21
e 1 22
e 1 23
e 1 27
e 1 35
e 1 38
e 1 58
e 1 60
e 1 63
e 1 76
e 1 80
e 1 87
e 1 91
e 1 99
e 2 17
e 2 18
e 2 19
e 2 20
e 2 21
e 2 22
e 2 23
e 2 24
e 2 30
e 2 31
e 2 34
e 2 38
e 2 39
e 2 40
e 2 43
e 2 45
e 2 46
e 2 48
e 2 52
e 2 64
e 2 74
e 2 78
e 2 84
e 2 86
e 2 87
e 2 98
e 2 100
e 3 17
e 3 18
e 3 20
e 3 21
e 3 22
e 3 23
e 3 25
e 3 26
e 3 43
e 3 46
e 3 55
e 3 57
e 3 59
e 3 71
e 3 77
e 3 79
e 3 84
e 3 91
e 3 98
e 4 17
e 4 18
e 4 19
e 4 20
e 4 21
e 4 22
e 4 23
e 4 24
e 4 25
e 4 26
e 4 27
e 4 28
e 4 29
e 4 32
e 4 33
e 4 35
e 4 38
e 4 41
e 4 47
e 4 48
e 4 53
e 4 58
e 4 67
e 4 72
e 4 73
e 4 78
e 4 81
e 4 90
e 4 94
e 5 17
e 5 18
e 5 19
e 5 20
e 5 24
e 5 25
e 5 26
e 5 29
e 5 35
e 5 36
e 5 37
e 5 43
e 5 45
e 5 61
e 5 64
e 5 68
e 5 74
e 5 84
e 5 89
e 5 93
e 5 96
e 6 17
e 6 18
e 6 19
e 6 22
e 6 28
e 6 34
e 6 44
e 6 45
e 6 65
e 6 70
e 6 94
e 6 97
e 6 100
e 7 17
e 7 19
e 7 20
e 7 21
e 7 22
e 7 23
e 7 25
e 7 27
e 7 29
e 7 30
e 7 31
e 7 32
e 7 38
e 7 40
e 7 46
e 7 47
e 7 49
e 7 51
e 7 54
e 7 56
e 7 57
e 7 58
e 7 61
e 7 63
e 7 69
e 7 79
e 7 89
e 8 17
e 8 18
e 8 20
e 8 24
e 8 25
e 8 30
e 8 33
e 8 34
e 8 35
e 8 37
e 8 55
e 8 61
e 8 63
e 8 77
e 8 86
e 8 95
e 8 98
e 9 17
e 9 18
e 9 19
e 9 20
e 9 23
e 9 25
e 9 26
e 9 28
e 9 30
e 9 32
e 9 33
e 9 36
e 9 43
e 9 49
e 9 53
e 9 55
e 9 58
e 9 59
e 9 60
e 9 69
e 9 72
e 9 83
e 9 86
e 9 92
e 9 93
e 10 17
e 10 18
e 10 19
e 10 20
e 10 21
e 10 22
e 10 23
e 10 24
e 10 25
e 10 26
e 10 27
e 10 37
e 10 38
e 10 41
e 10 44
e 10 47
e 10 56
e 10 69
e 10 73
e 10 75
e 10 85
e 10 90
e 10 95
e 10 96
e 11 17
e 11 18
e 11 19
e 11 20
e 11 21
e 11 22
e 11 23
e 11 26
e 11 29
e 11 31
e 11 36
e 11 37
e 11 39
e 11 42
e 11 46
e 11 49
e 11 51
e 11 61
e 11 64
e 11 65
e 11 67
e 11 73
e 11 83
e 11 90
e 11 93
e 12 17
e 12 18
e 12 19
e 12 20
e 12 21
e 12 22
e 12 23
e 12 28
e 12 29
e 12 32
e 12 33
e 12 36
e 12 37
e 12 38
e 12 40
e 12 41
e 12 42
e 12 43
e 12 45
e 12 50
e 12 55
e 12 56
e 12 58
e 12 61
e 12 68
e 12 80
e 12 89
e 12 93
e 12 95
e 12 98
e 13 17
e 13 18
e 13 19
e 13 20
e 13 21
e 13 22
e 13 23
e 13 24
e 13 25
e 13 27
e 13 28
e 13 29
e 13 30
e 13 31
e 13 32
e 13 33
e 13 36
e 13 37
e 13 40
e 13 42
e 13 44
e 13 46
e 13 51
e 13 54
e 13 57
e 13 62
e 13 65
e 13 68
e 13 69
e 13 70
e 13 73
e 13 77
e 13 80
e 13 82
e 13 84
e 13 85
e 13 91
e 14 17
e 14 18
e 14 19
e 14 20
e 14 21
e 14 24
e 14 25
e 14 27
e 14 30
e 14 32
e 14 37
e 14 38
e 14 42
e 14 50
e 14 57
e 14 61
e 14 68
e 14 74
e 14 78
e 14 82
e 14 83
e 14 85
e 14 93
e 14 99
e 15 17
e 15 18
e 15 19
e 15 21
e 15 24
e 15 25
e 15 26
e 15 27
e 15 28
e 15 29
e 15 31
e 15 36
e 15 42
e 15 44
e 15 47
e 15 65
e 15 69
e 15 70
e 16 17
e 16 18
e 16 19
e 16 20
e 16 21
e 16 22
e 16 24
e 16 28
e 16 30
e 16 31
e 16 34
e 16 55
e 16 56
e 16 62
e 16 68
e 16 76
e 16 77
e 16 88
e 17 18
e 17 19
e 17 20
e 17 21
e 17 22
e 17 23
e 17 24
e 17 25
e 17 26
e 17 27
e 17 28
e 17 30
e 17 32
e 17 33
e 17 34
e 17 35
e 17 36
e 17 37
e 17 39
e 17 42
e 17 44
e 17 45
e 17 49
e 17 51
e 17 52
e 17 54
e 17 59
e 17 60
e 17 62
e 17 63
e 17 64
e 17 66
e 17 71
e 17 72
e 17 73
e 17 74
e 17 76
e 17 78
e 17 79
e 17 82
e 17 83
e 17 89
e 17 91
e 17 96
e 18 19
e 18 20
e 18 21
e 18 22
e 18 23
e 18 24
e 18 25
e 18 26
e 18 27
e 18 28
e 18 29
e 18 30
e 18 32
e 18 33
e 18 35
e 18 36
e 18 37
e 18 39
e 18 41
e 18 42
e 18 43
e 18 44
e 18 46
e 18 47
e 18 48
e 18 50
e 18 51
e 18 52
e 18 55
e 18 56
e 18 61
e 18 63
e 18 67
e 18 70
e 18 75
e 18 79
e 18 82
e 18 83
e 18 85
e 18 86
e 18 89
e 18 91
e 18 92
e 18 97
e 19 20
e 19 21
e 19 22
e 19 23
e 19 24
e 19 25
e 19 26
e 19 27
e 19 28
e 19 29
e 19 30
e 19 31
e 19 32
e 19 34
e 19 35
e 19 36
e 19 39
e 19 40
e 19 42
e 19 43
e 19 44
e 19 45
e 19 46
e 19 48
e 19 51
e 19 52
e 19 54
e 19 56
e 19 57
e 19 58
e 19 60
e 19 66
e 19 67
e 19 69
e 19 74
e 19 79
e 19 80
e 19 83
e 19 86
e 19 87
e 19 94
e 19 95
e 19 96
e 19 97
e 19 100
e 20 21
e 20 22
e 20 23
e 20 24
e 20 25
e 20 26
e 20 27
e 20 28
e 20 29
e 20 30
e 20 31
e 20 32
e 20 33
e 20 35
e 20 36
e 20 37
e 20 39
e 20 40
e 20 41
e 20 44
e 20 46
e 20 48
e 20 49
e 20 50
e 20 52
e 20 54
e 20 59
e 20 62
e 20 64
e 20 68
e 20 74
e 20 77
e 20 81
e 20 82
e 20 83
e 20 87
e 20 88
e 20 92
e 20 96
e 20 99
e 21 22
e 21 23
e 21 24
e 21 25
e 21 26
e 21 27
e 21 28
e 21 29
e 21 30
e 21 31
e 21 32
e 21 34
e 21 35
e 21 36
e 21 38
e 21 39
e 21 40
e 21 41
e 21 46
e 21 47
e 21 48
e 21 51
e 21 52
e 21 56
e 21 58
e 21 61
e 21 62
e 21 63
e 21 64
e 21 65
e 21 68
e 21 69
e 21 72
e 21 73
e 21 74
e 21 79
e 21 81
e 21 83
e 21 85
e 21 88
e 21 92
e 21 95
e 21 97
e 21 98
e 22 23
e 22 24
e 22 25
e 22 26
e 22 27
e 22 29
e 22 30
e 22 31
e 22 33
e 22 34
e 22 35
e 22 38
e 22 39
e 22 41
e 22 42
e 22 47
e 22 49
e 22 50
e 22 53
e 22 54
e 22 56
e 22 57
e 22 60
e 22 61
e 22 62
e 22 66
e 22 71
e 22 74
e 22 76
e 22 77
e 22 78
e 22 79
e 22 87
e 22 88
e 22 95
e 22 97
e 22 99
e 23 24
e 23 26
e 23 27
e 23 28
e 23 29
e 23 30
e 23 31
e 23 33
e 23 34
e 23 36
e 23 37
e 23 40
e 23 41
e 23 43
e 23 45
e 23 47
e 23 50
e 23 54
e 23 58
e 23 60
e 23 63
e 23 66
e 23 67
e 23 68
e 23 71
e 23 72
e 23 73
e 23 77
e 23 85
e 23 87
e 23 95
e 23 96
e 24 26
e 24 27
e 24 28
e 24 29
e 24 31
e 24 32
e 24 33
e 24 35
e 24 36
e 24 38
e 24 39
e 24 40
e 24 41
e 24 42
e 24 44
e 24 49
e 24 51
e 24 52
e 24 53
e 24 61
e 24 65
e 24 66
e 24 69
e 24 76
e 24 80
e 24 81
e 24 84
e 24 85
e 24 89
e 24 90
e 24 94
e 24 98
e 24 99
e 25 26
e 25 27
e 25 28
e 25 29
e 25 32
e 25 33
e 25 34
e 25 35
e 25 38
e 25 41
e 25 45
e 25 47
e 25 49
e 25 50
e 25 51
e 25 52
e 25 55
e 25 60
e 25 61
e 25 62
e 25 63
e 25 65
e 25 66
e 25 71
e 25 72
e 25 73
e 25 74
e 25 75
e 25 81
e 25 90
e 25 93
e 25 94
e 25 98
e 26 29
e 26 30
e 26 31
e 26 33
e 26 34
e 26 38
e 26 39
e 26 40
e 26 41
e 26 42
e 26 50
e 26 54
e 26 57
e 26 61
e 26 63
e 26 80
e 26 81
e 26 82
e 26 84
e 26 89
e 26 90
e 26 93
e 26 94
e 26 97
e 27 28
e 27 35
e 27 37
e 27 43
e 27 44
e 27 46
e 27 47
e 27 48
e 27 52
e 27 55
e 27 56
e 27 57
e 27 58
e 27 59
e 27 62
e 27 68
e 27 80
e 27 82
e 27 88
e 27 91
e 28 30
e 28 31
e 28 34
e 28 35
e 28 39
e 28 40
e 28 41
e 28 43
e 28 44
e 28 45
e 28 46
e 28 52
e 28 56
e 28 58
e 28 63
e 28 74
e 28 76
e 28 84
e 28 85
e 28 92
e 28 99
e 29 31
e 29 32
e 29 33
e 29 34
e 29 35
e 29 36
e 29 38
e 29 40
e 29 43
e 29 49
e 29 50
e 29 56
e 29 64
e 29 65
e 29 69
e 29 70
e 29 76
e 29 82
e 29 83
e 29 86
e 29 92
e 29 95
e 30 31
e 30 32
e 30 33
e 30 34
e 30 35
e 30 37
e 30 39
e 30 40
e 30 42
e 30 43
e 30 45
e 30 46
e 30 48
e 30 50
e 30 51
e 30 53
e 30 54
e 30 55
e 30 57
e 30 59
e 30 62
e 30 63
e 30 66
e 30 67
e 30 70
e 30 71
e 30 77
e 30 79
e 30 82
e 30 84
e 30 92
e 30 93
e 30 97
e 30 100
e 31 32
e 31 33
e 31 34
e 31 39
e 31 42
e 31 44
e 31 47
e 31 49
e 31 50
e 31 51
e 31 52
e 31 53
e 31 54
e 31 55
e 31 60
e 31 64
e 31 67
e 31 71
e 31 75
e 31 76
e 31 77
e 31 78
e 31 83
e 31 92
e 31 95
e 32 34
e 32 36
e 32 38
e 32 39
e 32 41
e 32 43
e 32 44
e 32 48
e 32 49
e 32 58
e 32 65
e 32 66
e 32 72
e 32 77
e 32 78
e 32 83
e 32 90
e 32 93
e 32 95
e 33 38
e 33 39
e 33 42
e 33 45
e 33 48
e 33 53
e 33 59
e 33 66
e 33 69
e 33 72
e 33 73
e 33 100
e 34 37
e 34 41
e 34 42
e 34 45
e 34 46
e 34 47
e 34 48
e 34 50
e 34 52
e 34 55
e 34 59
e 34 60
e 34 62
e 34 70
e 34 71
e 34 72
e 34 73
e 34 74
e 34 75
e 34 85
e 34 87
e 34 89
e 34 91
e 34 92
e 34 93
e 34 94
e 35 36
e 35 37
e 35 38
e 35 40
e 35 45
e 35 54
e 35 59
e 35 70
e 35 74
e 35 93
e 36 37
e 36 40
e 36 41
e 36 44
e 36 46
e 36 48
e 36 49
e 36 51
e 36 52
e 36 53
e 36 56
e 36 57
e 36 59
e 36 60
e 36 63
e 36 64
e 36 66
e 36 67
e 36 68
e 36 75
e 36 80
e 36 85
e 36 88
e 36 90
e 36 94
e 36 98
e 36 100
e 37 43
e 37 47
e 37 52
e 37 57
e 37 58
e 37 59
e 37 60
e 37 62
e 37 67
e 37 68
e 37 72
e 37 81
e 37 89
e 37 93
e 37 99
e 38 39
e 38 40
e 38 42
e 38 44
e 38 48
e 38 51
e 38 58
e 38 64
e 38 66
e 38 72
e 38 80
e 38 81
e 38 82
e 38 84
e 38 85
e 38 92
e 38 97
e 38 100
e 39 41
e 39 43
e 39 47
e 39 53
e 39 59
e 39 60
e 39 61
e 39 63
e 39 64
e 39 65
e 39 66
e 39 68
e 39 70
e 39 71
e 39 75
e 39 76
e 39 79
e 39 80
e 39 81
e 39 88
e 39 94
e 39 95
e 39 96
e 40 45
e 40 46
e 40 49
e 40 50
e 40 53
e 40 54
e 40 61
e 40 64
e 40 69
e 40 70
e 40 71
e 40 75
e 40 79
e 40 91
e 40 97
e 41 44
e 41 45
e 41 55
e 41 56
e 41 59
e 41 62
e 41 64
e 41 67
e 41 74
e 41 79
e 41 87
e 41 89
e 41 90
e 41 96
e 42 43
e 42 47
e 42 48
e 42 49
e 42 50
e 42 51
e 42 55
e 42 57
e 42 60
e 42 61
e 42 66
e 42 84
e 42 91
e 42 96
e 43 48
e 43 49
e 43 52
e 43 53
e 43 57
e 43 58
e 43 62
e 43 68
e 43 71
e 43 76
e 43 82
e 43 86
e 43 87
e 43 92
e 43 97
e 43 99
e 43 100
e 44 45
e 44 49
e 44 50
e 44 53
e 44 54
e 44 61
e 44 78
e 44 86
e 44 93
e 44 98
e 45 46
e 45 51
e 45 52
e 45 53
e 45 55
e 45 57
e 45 58
e 45 65
e 45 66
e 45 68
e 45 71
e 45 73
e 45 78
e 45 79
e 45 80
e 45 81
e 45 90
e 46 47
e 46 48
e 46 62
e 46 63
e 46 70
e 46 75
e 46 81
e 46 85
e 46 90
e 46 98
e 47 51
e 47 59
e 47 60
e 47 62
e 47 64
e 47 69
e 47 78
e 47 80
e 47 88
e 47 95
e 48 50
e 48 53
e 48 56
e 48 60
e 48 62
e 48 63
e 48 69
e 48 79
e 48 84
e 48 87
e 48 94
e 48 97
e 49 53
e 49 54
e 49 65
e 49 72
e 49 73
e 49 80
e 49 86
e 49 89
e 49 92
e 49 100
e 50 57
e 50 59
e 50 67
e 50 74
e 50 75
e 50 82
e 50 87
e 50 91
e 50 95
e 50 99
e 51 54
e 51 56
e 51 57
e 51 59
e 51 64
e 51 65
e 51 73
e 51 79
e 51 82
e 51 83
e 51 86
e 51 87
e 51 88
e 51 94
e 51 97
e 51 99
e 52 53
e 52 54
e 52 55
e 52 67
e 52 71
e 52 72
e 52 74
e 52 75
e 52 76
e 52 80
e 52 83
e 52 84
e 52 87
e 52 89
e 52 98
e 52 100
e 53 67
e 53 73
e 53 75
e 53 78
e 53 79
e 54 55
e 54 56
e 54 58
e 54 72
e 54 75
e 54 88
e 55 65
e 55 66
e 55 68
e 55 73
e 55 76
e 55 78
e 55 79
e 55 81
e 55 84
e 55 90
e 55 91
e 55 92
e 56 66
e 56 70
e 56 71
e 56 76
e 56 78
e 56 85
e 56 88
e 56 97
e 56 99
e 57 69
e 57 82
e 57 86
e 58 67
e 58 72
e 58 77
e 58 78
e 58 83
e 58 90
e 58 95
e 58 100
e 59 60
e 59 65
e 59 86
e 59 88
e 59 96
e 60 63
e 60 67
e 60 81
e 60 91
e 61 64
e 61 76
e 61 84
e 61 91
e 62 70
e 62 86
e 63 65
e 63 67
e 63 69
e 63 80
e 63 81
e 63 82
e 63 89
e 63 95
e 64 68
e 64 81
e 64 87
e 64 92
e 65 70
e 65 72
e 65 94
e 65 98
e 66 70
e 66 71
e 66 76
e 66 77
e 66 87
e 66 88
e 66 94
e 66 100
e 67 69
e 67 70
e 67 75
e 67 84
e 67 85
e 67 97
e 67 99
e 68 77
e 68 96
e 69 71
e 69 75
e 69 76
e 69 78
e 69 90
e 69 96
e 69 99
e 70 77
e 70 78
e 70 81
e 70 86
e 70 93
e 70 96
e 70 100
e 71 73
e 71 74
e 71 87
e 71 88
e 71 90
e 72 85
e 72 86
e 72 89
e 72 95
e 73 77
e 74 75
e 74 77
e 74 80
e 74 83
e 74 92
e 75 83
e 75 84
e 75 94
e 75 98
e 75 99
e 76 91
e 76 92
e 76 94
e 76 99
e 78 91
e 78 98
e 80 82
e 80 86
e 80 90
e 81 88
e 81 89
e 81 93
e 83 85
e 83 89
e 84 96
e 84 97
e 87 88
e 87 93
e 87 96
e 87 98
e 89 91
e 90 94
e 90 96
e 90 100
e 91 97
e 91 98
e 91 100
e 96 99
e 99 100
